c Qdimacs file from skolem function generator
p cnf 418 1222
a 227 229 231 233 235 237 239 241 243 245 247 249 251 253 255 257 259 261 263 265 267 269 271 273 275 277 279 281 283 285 287 289 291 293 295 297 299 301 303 305 307 309 311 313 315 317 319 321 323 325 327 329 331 333 335 337 339 341 343 345 347 349 351 353 354 355 356 357 358 359 360 361 362 363 364 365 366 367 368 369 370 371 372 373 374 375 376 377 378 379 380 381 382 383 384 385 386 387 388 389 390 391 392 393 394 395 396 397 398 399 400 401 402 403 404 405 406 407 408 409 410 411 412 413 414 415 416 417 0
e 226 228 230 232 234 236 238 240 242 244 246 248 250 252 254 256 258 260 262 264 266 268 270 272 274 276 278 280 282 284 286 288 290 292 294 296 298 300 302 304 306 308 310 312 314 316 318 320 322 324 326 328 330 332 334 336 338 340 342 344 346 348 350 352 1 2 3 4 5 6 7 8 9 10 11 12 13 14 15 16 17 18 19 20 21 22 23 24 25 26 27 28 29 30 31 32 33 34 35 36 37 38 39 40 41 42 43 44 45 46 47 48 49 50 51 52 53 54 55 56 57 58 59 60 61 62 63 64 65 66 67 68 69 70 71 72 73 74 75 76 77 78 79 80 81 82 83 84 85 86 87 88 89 90 91 92 93 94 95 96 97 98 99 100 101 102 103 104 105 106 107 108 109 110 111 112 113 114 115 116 117 118 119 120 121 122 123 124 125 126 127 128 129 130 131 132 133 134 135 136 137 138 139 140 141 142 143 144 145 146 147 148 149 150 151 152 153 154 155 156 157 158 159 160 161 162 163 164 165 166 167 168 169 170 171 172 173 174 175 176 177 178 179 180 181 182 183 184 185 186 187 188 189 190 191 192 193 194 195 196 197 198 199 200 201 202 203 204 205 206 207 208 209 210 211 212 213 214 215 216 217 218 219 220 221 222 223 224 225 418 0
4 5 90 175 -221 0
-4 221 0
-4 -175 0
-4 -5 0
-4 -90 0
5 6 -7 0
5 6 8 -89 0
-5 -6 0
-5 7 89 0
-5 7 -8 0
6 -226 354 0
-6 226 0
-6 -354 0
7 228 -355 0
-7 -228 0
-7 355 0
8 87 -88 0
8 9 -86 -88 0
-8 88 0
-8 -9 -87 0
-8 86 -87 0
9 84 -85 0
9 10 -83 -85 0
-9 85 0
-9 -10 -84 0
-9 83 -84 0
10 81 -82 0
10 11 -80 -82 0
-10 82 0
-10 -11 -81 0
-10 80 -81 0
11 78 -79 0
11 12 -77 -79 0
-11 79 0
-11 -12 -78 0
-11 77 -78 0
12 75 -76 0
12 13 -74 -76 0
-12 76 0
-12 -13 -75 0
-12 74 -75 0
13 72 -73 0
13 14 -71 -73 0
-13 73 0
-13 -14 -72 0
-13 71 -72 0
14 69 -70 0
14 15 -68 -70 0
-14 70 0
-14 -15 -69 0
-14 68 -69 0
15 66 -67 0
15 16 -65 -67 0
-15 67 0
-15 -16 -66 0
-15 65 -66 0
16 63 -64 0
16 17 -62 -64 0
-16 64 0
-16 -17 -63 0
-16 62 -63 0
17 60 -61 0
17 18 -59 -61 0
-17 61 0
-17 -18 -60 0
-17 59 -60 0
18 57 -58 0
18 19 -56 -58 0
-18 58 0
-18 -19 -57 0
-18 56 -57 0
19 54 -55 0
19 20 -53 -55 0
-19 55 0
-19 -20 -54 0
-19 53 -54 0
20 51 -52 0
20 21 -50 -52 0
-20 52 0
-20 -21 -51 0
-20 50 -51 0
21 48 -49 0
21 22 -47 -49 0
-21 49 0
-21 -22 -48 0
-21 47 -48 0
22 45 -46 0
22 23 -44 -46 0
-22 46 0
-22 -23 -45 0
-22 44 -45 0
23 42 -43 0
23 24 -41 -43 0
-23 43 0
-23 -24 -42 0
-23 41 -42 0
24 39 -40 0
24 25 -38 -40 0
-24 40 0
-24 -25 -39 0
-24 38 -39 0
25 36 -37 0
25 26 -35 -37 0
-25 37 0
-25 -26 -36 0
-25 35 -36 0
26 33 -34 0
26 27 -32 -34 0
-26 34 0
-26 -27 -33 0
-26 32 -33 0
27 30 -31 0
27 28 -29 -31 0
-27 31 0
-27 -28 -30 0
-27 29 -30 0
28 -352 416 0
28 -350 417 0
28 -350 -352 0
28 416 417 0
-28 352 -417 0
-28 350 -416 0
29 348 350 0
29 -415 -416 0
29 348 -416 0
29 350 -415 0
-29 -348 415 0
-29 -350 416 0
30 -348 414 0
30 -346 415 0
30 -346 -348 0
30 414 415 0
-30 348 -415 0
-30 346 -414 0
31 344 346 0
31 -413 -414 0
31 344 -414 0
31 346 -413 0
-31 -344 413 0
-31 -346 414 0
32 -344 412 0
32 -342 413 0
32 -342 -344 0
32 412 413 0
-32 344 -413 0
-32 342 -412 0
33 340 342 0
33 -411 -412 0
33 340 -412 0
33 342 -411 0
-33 -340 411 0
-33 -342 412 0
34 -340 410 0
34 -338 411 0
34 -338 -340 0
34 410 411 0
-34 340 -411 0
-34 338 -410 0
35 336 338 0
35 -409 -410 0
35 336 -410 0
35 338 -409 0
-35 -336 409 0
-35 -338 410 0
36 -336 408 0
36 -334 409 0
36 -334 -336 0
36 408 409 0
-36 336 -409 0
-36 334 -408 0
37 332 334 0
37 -407 -408 0
37 332 -408 0
37 334 -407 0
-37 -332 407 0
-37 -334 408 0
38 -332 406 0
38 -330 407 0
38 -330 -332 0
38 406 407 0
-38 332 -407 0
-38 330 -406 0
39 328 330 0
39 -405 -406 0
39 328 -406 0
39 330 -405 0
-39 -328 405 0
-39 -330 406 0
40 -328 404 0
40 -326 405 0
40 -326 -328 0
40 404 405 0
-40 328 -405 0
-40 326 -404 0
41 324 326 0
41 -403 -404 0
41 324 -404 0
41 326 -403 0
-41 -324 403 0
-41 -326 404 0
42 -324 402 0
42 -322 403 0
42 -322 -324 0
42 402 403 0
-42 324 -403 0
-42 322 -402 0
43 320 322 0
43 -401 -402 0
43 320 -402 0
43 322 -401 0
-43 -320 401 0
-43 -322 402 0
44 -320 400 0
44 -318 401 0
44 -318 -320 0
44 400 401 0
-44 320 -401 0
-44 318 -400 0
45 316 318 0
45 -399 -400 0
45 316 -400 0
45 318 -399 0
-45 -316 399 0
-45 -318 400 0
46 -316 398 0
46 -314 399 0
46 -314 -316 0
46 398 399 0
-46 316 -399 0
-46 314 -398 0
47 312 314 0
47 -397 -398 0
47 312 -398 0
47 314 -397 0
-47 -312 397 0
-47 -314 398 0
48 -312 396 0
48 -310 397 0
48 -310 -312 0
48 396 397 0
-48 312 -397 0
-48 310 -396 0
49 308 310 0
49 -395 -396 0
49 308 -396 0
49 310 -395 0
-49 -308 395 0
-49 -310 396 0
50 -308 394 0
50 -306 395 0
50 -306 -308 0
50 394 395 0
-50 308 -395 0
-50 306 -394 0
51 304 306 0
51 -393 -394 0
51 304 -394 0
51 306 -393 0
-51 -304 393 0
-51 -306 394 0
52 -304 392 0
52 -302 393 0
52 -302 -304 0
52 392 393 0
-52 304 -393 0
-52 302 -392 0
53 300 302 0
53 -391 -392 0
53 300 -392 0
53 302 -391 0
-53 -300 391 0
-53 -302 392 0
54 -300 390 0
54 -298 391 0
54 -298 -300 0
54 390 391 0
-54 300 -391 0
-54 298 -390 0
55 296 298 0
55 -389 -390 0
55 296 -390 0
55 298 -389 0
-55 -296 389 0
-55 -298 390 0
56 -296 388 0
56 -294 389 0
56 -294 -296 0
56 388 389 0
-56 296 -389 0
-56 294 -388 0
57 292 294 0
57 -387 -388 0
57 292 -388 0
57 294 -387 0
-57 -292 387 0
-57 -294 388 0
58 -292 386 0
58 -290 387 0
58 -290 -292 0
58 386 387 0
-58 292 -387 0
-58 290 -386 0
59 288 290 0
59 -385 -386 0
59 288 -386 0
59 290 -385 0
-59 -288 385 0
-59 -290 386 0
60 -288 384 0
60 -286 385 0
60 -286 -288 0
60 384 385 0
-60 288 -385 0
-60 286 -384 0
61 284 286 0
61 -383 -384 0
61 284 -384 0
61 286 -383 0
-61 -284 383 0
-61 -286 384 0
62 -284 382 0
62 -282 383 0
62 -282 -284 0
62 382 383 0
-62 284 -383 0
-62 282 -382 0
63 280 282 0
63 -381 -382 0
63 280 -382 0
63 282 -381 0
-63 -280 381 0
-63 -282 382 0
64 -280 380 0
64 -278 381 0
64 -278 -280 0
64 380 381 0
-64 280 -381 0
-64 278 -380 0
65 276 278 0
65 -379 -380 0
65 276 -380 0
65 278 -379 0
-65 -276 379 0
-65 -278 380 0
66 -276 378 0
66 -274 379 0
66 -274 -276 0
66 378 379 0
-66 276 -379 0
-66 274 -378 0
67 272 274 0
67 -377 -378 0
67 272 -378 0
67 274 -377 0
-67 -272 377 0
-67 -274 378 0
68 -272 376 0
68 -270 377 0
68 -270 -272 0
68 376 377 0
-68 272 -377 0
-68 270 -376 0
69 268 270 0
69 -375 -376 0
69 268 -376 0
69 270 -375 0
-69 -268 375 0
-69 -270 376 0
70 -268 374 0
70 -266 375 0
70 -266 -268 0
70 374 375 0
-70 268 -375 0
-70 266 -374 0
71 264 266 0
71 -373 -374 0
71 264 -374 0
71 266 -373 0
-71 -264 373 0
-71 -266 374 0
72 -264 372 0
72 -262 373 0
72 -262 -264 0
72 372 373 0
-72 264 -373 0
-72 262 -372 0
73 260 262 0
73 -371 -372 0
73 260 -372 0
73 262 -371 0
-73 -260 371 0
-73 -262 372 0
74 -260 370 0
74 -258 371 0
74 -258 -260 0
74 370 371 0
-74 260 -371 0
-74 258 -370 0
75 256 258 0
75 -369 -370 0
75 256 -370 0
75 258 -369 0
-75 -256 369 0
-75 -258 370 0
76 -256 368 0
76 -254 369 0
76 -254 -256 0
76 368 369 0
-76 256 -369 0
-76 254 -368 0
77 252 254 0
77 -367 -368 0
77 252 -368 0
77 254 -367 0
-77 -252 367 0
-77 -254 368 0
78 -252 366 0
78 -250 367 0
78 -250 -252 0
78 366 367 0
-78 252 -367 0
-78 250 -366 0
79 248 250 0
79 -365 -366 0
79 248 -366 0
79 250 -365 0
-79 -248 365 0
-79 -250 366 0
80 -248 364 0
80 -246 365 0
80 -246 -248 0
80 364 365 0
-80 248 -365 0
-80 246 -364 0
81 244 246 0
81 -363 -364 0
81 244 -364 0
81 246 -363 0
-81 -244 363 0
-81 -246 364 0
82 -244 362 0
82 -242 363 0
82 -242 -244 0
82 362 363 0
-82 244 -363 0
-82 242 -362 0
83 240 242 0
83 -361 -362 0
83 240 -362 0
83 242 -361 0
-83 -240 361 0
-83 -242 362 0
84 -240 360 0
84 -238 361 0
84 -238 -240 0
84 360 361 0
-84 240 -361 0
-84 238 -360 0
85 236 238 0
85 -359 -360 0
85 236 -360 0
85 238 -359 0
-85 -236 359 0
-85 -238 360 0
86 -236 358 0
86 -234 359 0
86 -234 -236 0
86 358 359 0
-86 236 -359 0
-86 234 -358 0
87 232 234 0
87 -357 -358 0
87 232 -358 0
87 234 -357 0
-87 -232 357 0
-87 -234 358 0
88 -232 356 0
88 -230 357 0
88 -230 -232 0
88 356 357 0
-88 232 -357 0
-88 230 -356 0
89 228 230 0
89 -355 -356 0
89 228 -356 0
89 230 -355 0
-89 -228 355 0
-89 -230 356 0
90 91 -92 0
90 91 93 -174 0
-90 -91 0
-90 92 174 0
-90 92 -93 0
91 -226 227 0
-91 226 0
-91 -227 0
92 228 -229 0
-92 -228 0
-92 229 0
93 172 -173 0
93 94 -171 -173 0
-93 173 0
-93 -94 -172 0
-93 171 -172 0
94 169 -170 0
94 95 -168 -170 0
-94 170 0
-94 -95 -169 0
-94 168 -169 0
95 166 -167 0
95 96 -165 -167 0
-95 167 0
-95 -96 -166 0
-95 165 -166 0
96 163 -164 0
96 97 -162 -164 0
-96 164 0
-96 -97 -163 0
-96 162 -163 0
97 160 -161 0
97 98 -159 -161 0
-97 161 0
-97 -98 -160 0
-97 159 -160 0
98 157 -158 0
98 99 -156 -158 0
-98 158 0
-98 -99 -157 0
-98 156 -157 0
99 154 -155 0
99 100 -153 -155 0
-99 155 0
-99 -100 -154 0
-99 153 -154 0
100 151 -152 0
100 101 -150 -152 0
-100 152 0
-100 -101 -151 0
-100 150 -151 0
101 148 -149 0
101 102 -147 -149 0
-101 149 0
-101 -102 -148 0
-101 147 -148 0
102 145 -146 0
102 103 -144 -146 0
-102 146 0
-102 -103 -145 0
-102 144 -145 0
103 142 -143 0
103 104 -141 -143 0
-103 143 0
-103 -104 -142 0
-103 141 -142 0
104 139 -140 0
104 105 -138 -140 0
-104 140 0
-104 -105 -139 0
-104 138 -139 0
105 136 -137 0
105 106 -135 -137 0
-105 137 0
-105 -106 -136 0
-105 135 -136 0
106 133 -134 0
106 107 -132 -134 0
-106 134 0
-106 -107 -133 0
-106 132 -133 0
107 130 -131 0
107 108 -129 -131 0
-107 131 0
-107 -108 -130 0
-107 129 -130 0
108 127 -128 0
108 109 -126 -128 0
-108 128 0
-108 -109 -127 0
-108 126 -127 0
109 124 -125 0
109 110 -123 -125 0
-109 125 0
-109 -110 -124 0
-109 123 -124 0
110 121 -122 0
110 111 -120 -122 0
-110 122 0
-110 -111 -121 0
-110 120 -121 0
111 118 -119 0
111 112 -117 -119 0
-111 119 0
-111 -112 -118 0
-111 117 -118 0
112 115 -116 0
112 113 -114 -116 0
-112 116 0
-112 -113 -115 0
-112 114 -115 0
113 -350 353 0
113 351 -352 0
113 351 353 0
113 -350 -352 0
-113 350 -351 0
-113 352 -353 0
114 -349 350 0
114 348 -351 0
114 348 350 0
114 -349 -351 0
-114 -348 349 0
-114 -350 351 0
115 -346 349 0
115 347 -348 0
115 347 349 0
115 -346 -348 0
-115 346 -347 0
-115 348 -349 0
116 -345 346 0
116 344 -347 0
116 344 346 0
116 -345 -347 0
-116 -344 345 0
-116 -346 347 0
117 -342 345 0
117 343 -344 0
117 343 345 0
117 -342 -344 0
-117 342 -343 0
-117 344 -345 0
118 -341 342 0
118 340 -343 0
118 340 342 0
118 -341 -343 0
-118 -340 341 0
-118 -342 343 0
119 -338 341 0
119 339 -340 0
119 339 341 0
119 -338 -340 0
-119 338 -339 0
-119 340 -341 0
120 -337 338 0
120 336 -339 0
120 336 338 0
120 -337 -339 0
-120 -336 337 0
-120 -338 339 0
121 -334 337 0
121 335 -336 0
121 335 337 0
121 -334 -336 0
-121 334 -335 0
-121 336 -337 0
122 -333 334 0
122 332 -335 0
122 332 334 0
122 -333 -335 0
-122 -332 333 0
-122 -334 335 0
123 -330 333 0
123 331 -332 0
123 331 333 0
123 -330 -332 0
-123 330 -331 0
-123 332 -333 0
124 -329 330 0
124 328 -331 0
124 328 330 0
124 -329 -331 0
-124 -328 329 0
-124 -330 331 0
125 -326 329 0
125 327 -328 0
125 327 329 0
125 -326 -328 0
-125 326 -327 0
-125 328 -329 0
126 -325 326 0
126 324 -327 0
126 324 326 0
126 -325 -327 0
-126 -324 325 0
-126 -326 327 0
127 -322 325 0
127 323 -324 0
127 323 325 0
127 -322 -324 0
-127 322 -323 0
-127 324 -325 0
128 -321 322 0
128 320 -323 0
128 320 322 0
128 -321 -323 0
-128 -320 321 0
-128 -322 323 0
129 -318 321 0
129 319 -320 0
129 319 321 0
129 -318 -320 0
-129 318 -319 0
-129 320 -321 0
130 -317 318 0
130 316 -319 0
130 316 318 0
130 -317 -319 0
-130 -316 317 0
-130 -318 319 0
131 -314 317 0
131 315 -316 0
131 315 317 0
131 -314 -316 0
-131 314 -315 0
-131 316 -317 0
132 -313 314 0
132 312 -315 0
132 312 314 0
132 -313 -315 0
-132 -312 313 0
-132 -314 315 0
133 -310 313 0
133 311 -312 0
133 311 313 0
133 -310 -312 0
-133 310 -311 0
-133 312 -313 0
134 -309 310 0
134 308 -311 0
134 308 310 0
134 -309 -311 0
-134 -308 309 0
-134 -310 311 0
135 -306 309 0
135 307 -308 0
135 307 309 0
135 -306 -308 0
-135 306 -307 0
-135 308 -309 0
136 -305 306 0
136 304 -307 0
136 304 306 0
136 -305 -307 0
-136 -304 305 0
-136 -306 307 0
137 -302 305 0
137 303 -304 0
137 303 305 0
137 -302 -304 0
-137 302 -303 0
-137 304 -305 0
138 -301 302 0
138 300 -303 0
138 300 302 0
138 -301 -303 0
-138 -300 301 0
-138 -302 303 0
139 -298 301 0
139 299 -300 0
139 299 301 0
139 -298 -300 0
-139 298 -299 0
-139 300 -301 0
140 -297 298 0
140 296 -299 0
140 296 298 0
140 -297 -299 0
-140 -296 297 0
-140 -298 299 0
141 -294 297 0
141 295 -296 0
141 295 297 0
141 -294 -296 0
-141 294 -295 0
-141 296 -297 0
142 -293 294 0
142 292 -295 0
142 292 294 0
142 -293 -295 0
-142 -292 293 0
-142 -294 295 0
143 -290 293 0
143 291 -292 0
143 291 293 0
143 -290 -292 0
-143 290 -291 0
-143 292 -293 0
144 -289 290 0
144 288 -291 0
144 288 290 0
144 -289 -291 0
-144 -288 289 0
-144 -290 291 0
145 -286 289 0
145 287 -288 0
145 287 289 0
145 -286 -288 0
-145 286 -287 0
-145 288 -289 0
146 -285 286 0
146 284 -287 0
146 284 286 0
146 -285 -287 0
-146 -284 285 0
-146 -286 287 0
147 -282 285 0
147 283 -284 0
147 283 285 0
147 -282 -284 0
-147 282 -283 0
-147 284 -285 0
148 -281 282 0
148 280 -283 0
148 280 282 0
148 -281 -283 0
-148 -280 281 0
-148 -282 283 0
149 -278 281 0
149 279 -280 0
149 279 281 0
149 -278 -280 0
-149 278 -279 0
-149 280 -281 0
150 -277 278 0
150 276 -279 0
150 276 278 0
150 -277 -279 0
-150 -276 277 0
-150 -278 279 0
151 -274 277 0
151 275 -276 0
151 275 277 0
151 -274 -276 0
-151 274 -275 0
-151 276 -277 0
152 -273 274 0
152 272 -275 0
152 272 274 0
152 -273 -275 0
-152 -272 273 0
-152 -274 275 0
153 -270 273 0
153 271 -272 0
153 271 273 0
153 -270 -272 0
-153 270 -271 0
-153 272 -273 0
154 -269 270 0
154 268 -271 0
154 268 270 0
154 -269 -271 0
-154 -268 269 0
-154 -270 271 0
155 -266 269 0
155 267 -268 0
155 267 269 0
155 -266 -268 0
-155 266 -267 0
-155 268 -269 0
156 -265 266 0
156 264 -267 0
156 264 266 0
156 -265 -267 0
-156 -264 265 0
-156 -266 267 0
157 -262 265 0
157 263 -264 0
157 263 265 0
157 -262 -264 0
-157 262 -263 0
-157 264 -265 0
158 -261 262 0
158 260 -263 0
158 260 262 0
158 -261 -263 0
-158 -260 261 0
-158 -262 263 0
159 -258 261 0
159 259 -260 0
159 259 261 0
159 -258 -260 0
-159 258 -259 0
-159 260 -261 0
160 -257 258 0
160 256 -259 0
160 256 258 0
160 -257 -259 0
-160 -256 257 0
-160 -258 259 0
161 -254 257 0
161 255 -256 0
161 255 257 0
161 -254 -256 0
-161 254 -255 0
-161 256 -257 0
162 -253 254 0
162 252 -255 0
162 252 254 0
162 -253 -255 0
-162 -252 253 0
-162 -254 255 0
163 -250 253 0
163 251 -252 0
163 251 253 0
163 -250 -252 0
-163 250 -251 0
-163 252 -253 0
164 -249 250 0
164 248 -251 0
164 248 250 0
164 -249 -251 0
-164 -248 249 0
-164 -250 251 0
165 -246 249 0
165 247 -248 0
165 247 249 0
165 -246 -248 0
-165 246 -247 0
-165 248 -249 0
166 -245 246 0
166 244 -247 0
166 244 246 0
166 -245 -247 0
-166 -244 245 0
-166 -246 247 0
167 -242 245 0
167 243 -244 0
167 243 245 0
167 -242 -244 0
-167 242 -243 0
-167 244 -245 0
168 -241 242 0
168 240 -243 0
168 240 242 0
168 -241 -243 0
-168 -240 241 0
-168 -242 243 0
169 -238 241 0
169 239 -240 0
169 239 241 0
169 -238 -240 0
-169 238 -239 0
-169 240 -241 0
170 -237 238 0
170 236 -239 0
170 236 238 0
170 -237 -239 0
-170 -236 237 0
-170 -238 239 0
171 -234 237 0
171 235 -236 0
171 235 237 0
171 -234 -236 0
-171 234 -235 0
-171 236 -237 0
172 -233 234 0
172 232 -235 0
172 232 234 0
172 -233 -235 0
-172 -232 233 0
-172 -234 235 0
173 -230 233 0
173 231 -232 0
173 231 233 0
173 -230 -232 0
-173 230 -231 0
-173 232 -233 0
174 -229 230 0
174 228 -231 0
174 228 230 0
174 -229 -231 0
-174 -228 229 0
-174 -230 231 0
175 176 211 0
175 176 199 0
175 176 216 0
-175 -176 0
-175 -199 -211 -216 0
176 -177 -182 -189 -194 0
-176 194 0
-176 177 0
-176 189 0
-176 182 0
177 -178 -179 -180 -181 0
-177 181 0
-177 178 0
-177 180 0
-177 179 0
178 -131 -132 -133 -134 0
-178 134 0
-178 131 0
-178 133 0
-178 132 0
179 -127 -128 -129 -130 0
-179 130 0
-179 127 0
-179 129 0
-179 128 0
180 -139 -140 -141 -142 0
-180 142 0
-180 139 0
-180 141 0
-180 140 0
181 -135 -136 -137 -138 0
-181 138 0
-181 135 0
-181 137 0
-181 136 0
182 -183 -184 -187 -188 0
-182 188 0
-182 183 0
-182 187 0
-182 184 0
183 -115 -116 -117 -118 0
-183 118 0
-183 115 0
-183 117 0
-183 116 0
184 -113 -114 -185 0
-184 113 0
-184 114 0
-184 185 0
185 226 227 92 186 0
185 -226 -227 92 186 0
-185 -92 0
-185 -226 227 0
-185 -186 0
-185 226 -227 0
186 -352 353 0
-186 352 0
-186 -353 0
187 -123 -124 -125 -126 0
-187 126 0
-187 123 0
-187 125 0
-187 124 0
188 -119 -120 -121 -122 0
-188 122 0
-188 119 0
-188 121 0
-188 120 0
189 -190 -191 -192 -193 0
-189 193 0
-189 190 0
-189 192 0
-189 191 0
190 -163 -164 -165 -166 0
-190 166 0
-190 163 0
-190 165 0
-190 164 0
191 -159 -160 -161 -162 0
-191 162 0
-191 159 0
-191 161 0
-191 160 0
192 -171 -172 -173 -174 0
-192 174 0
-192 171 0
-192 173 0
-192 172 0
193 -167 -168 -169 -170 0
-193 170 0
-193 167 0
-193 169 0
-193 168 0
194 -195 -196 -197 -198 0
-194 198 0
-194 195 0
-194 197 0
-194 196 0
195 -147 -148 -149 -150 0
-195 150 0
-195 147 0
-195 149 0
-195 148 0
196 -143 -144 -145 -146 0
-196 146 0
-196 143 0
-196 145 0
-196 144 0
197 -155 -156 -157 -158 0
-197 158 0
-197 155 0
-197 157 0
-197 156 0
198 -151 -152 -153 -154 0
-198 154 0
-198 151 0
-198 153 0
-198 152 0
199 -200 -205 -209 -210 0
-199 210 0
-199 200 0
-199 209 0
-199 205 0
200 -201 -202 -203 -204 0
-200 204 0
-200 201 0
-200 203 0
-200 202 0
201 -46 -47 -48 -49 0
-201 49 0
-201 46 0
-201 48 0
-201 47 0
202 -42 -43 -44 -45 0
-202 45 0
-202 42 0
-202 44 0
-202 43 0
203 -54 -55 -56 -57 0
-203 57 0
-203 54 0
-203 56 0
-203 55 0
204 -50 -51 -52 -53 0
-204 53 0
-204 50 0
-204 52 0
-204 51 0
205 -28 -29 -206 -207 0
-205 207 0
-205 28 0
-205 206 0
-205 29 0
206 -30 -31 -32 -33 0
-206 33 0
-206 30 0
-206 32 0
-206 31 0
207 226 354 7 208 0
207 -226 -354 7 208 0
-207 -7 0
-207 -226 354 0
-207 -208 0
-207 226 -354 0
208 -352 417 0
-208 352 0
-208 -417 0
209 -38 -39 -40 -41 0
-209 41 0
-209 38 0
-209 40 0
-209 39 0
210 -34 -35 -36 -37 0
-210 37 0
-210 34 0
-210 36 0
-210 35 0
211 -212 -213 -214 -215 0
-211 215 0
-211 212 0
-211 214 0
-211 213 0
212 -78 -79 -80 -81 0
-212 81 0
-212 78 0
-212 80 0
-212 79 0
213 -74 -75 -76 -77 0
-213 77 0
-213 74 0
-213 76 0
-213 75 0
214 -86 -87 -88 -89 0
-214 89 0
-214 86 0
-214 88 0
-214 87 0
215 -82 -83 -84 -85 0
-215 85 0
-215 82 0
-215 84 0
-215 83 0
216 -217 -218 -219 -220 0
-216 220 0
-216 217 0
-216 219 0
-216 218 0
217 -62 -63 -64 -65 0
-217 65 0
-217 62 0
-217 64 0
-217 63 0
218 -58 -59 -60 -61 0
-218 61 0
-218 58 0
-218 60 0
-218 59 0
219 -70 -71 -72 -73 0
-219 73 0
-219 70 0
-219 72 0
-219 71 0
220 -66 -67 -68 -69 0
-220 69 0
-220 66 0
-220 68 0
-220 67 0
221 -226 0
221 227 354 0
-221 226 -227 0
-221 226 -354 0
222 223 224 175 -225 0
-222 225 0
-222 -175 0
-222 -223 0
-222 -224 0
223 226 -227 0
-223 -226 0
-223 227 0
224 226 -354 0
-224 -226 0
-224 354 0
225 5 90 0
-225 -5 0
-225 -90 0
418 0
2 -4 0
-2 4 0
3 -222 0
-3 222 0
3 0
